% seed = 0

mint = 35;
% maxt = 183;

nActs = 92;
dur = [0,1,4,2,1,2,1,2,3,2,1,1,2,1,2,2,1,5,2,2,2,1,3,2,1,3,2,2,1,4,1,1,4,3,1,5,1,2,2,1,6,3,2,3,2,2,2,3,1,1,3,1,1,2,3,2,1,2,3,2,2,1,2,1,1,1,2,2,2,2,2,1,2,2,1,2,4,1,2,2,2,3,2,3,1,2,1,3,2,2,3,0];

nSkills = 15;
sreq = [| 0,0,0,0,0,0,0,0,0,0,0,0,0,0,0,
	| 0,0,1,0,0,0,0,0,0,0,1,0,0,0,0,
	| 0,1,2,0,1,1,0,1,0,0,0,0,0,0,0,
	| 0,1,1,0,0,1,1,0,0,0,0,0,0,1,0,
	| 0,2,0,1,0,1,0,0,0,0,1,0,0,0,0,
	| 0,1,1,1,0,1,0,0,0,0,0,2,0,0,0,
	| 0,0,0,0,0,0,0,0,1,0,0,0,0,0,0,
	| 0,0,0,0,0,0,0,0,0,0,1,0,0,0,0,
	| 0,0,1,0,1,0,0,0,0,0,1,0,0,0,0,
	| 0,1,1,0,0,0,0,0,1,1,0,1,0,0,0,
	| 0,1,1,0,0,2,0,1,0,0,0,0,0,1,0,
	| 1,0,0,0,0,0,0,0,0,0,0,0,0,0,0,
	| 0,0,2,0,0,1,1,0,0,0,0,0,0,1,0,
	| 0,1,2,0,1,0,0,0,0,0,0,2,0,0,0,
	| 0,1,0,0,1,0,1,0,0,0,0,2,0,0,0,
	| 0,0,1,0,0,0,0,0,0,0,0,1,0,1,0,
	| 0,0,0,1,0,0,0,0,0,0,0,0,0,0,0,
	| 0,0,1,0,1,0,0,0,1,0,0,1,0,0,0,
	| 0,1,2,0,0,1,0,0,0,0,0,2,0,0,0,
	| 0,0,2,0,0,1,0,0,1,0,0,1,0,0,0,
	| 0,0,0,0,0,0,2,0,0,0,0,0,0,0,0,
	| 0,0,1,0,0,0,0,0,0,0,0,0,0,0,0,
	| 0,0,0,1,1,1,0,0,2,1,0,0,0,0,0,
	| 0,0,0,0,0,0,0,0,0,0,0,0,1,0,0,
	| 0,0,1,0,0,1,0,1,0,0,0,0,0,0,0,
	| 0,0,1,0,0,0,1,0,1,0,0,1,0,0,0,
	| 0,0,0,0,1,0,0,0,0,0,0,1,0,0,0,
	| 0,0,1,0,0,0,0,0,0,0,0,0,0,0,0,
	| 1,0,0,0,1,1,0,0,1,0,0,1,0,1,0,
	| 0,0,1,0,0,0,0,0,0,0,0,0,0,0,0,
	| 0,0,1,0,0,0,0,0,0,0,0,2,0,1,0,
	| 0,0,0,0,0,0,0,0,0,0,1,0,0,0,0,
	| 0,0,1,1,1,0,1,0,1,0,0,0,0,1,0,
	| 0,0,2,0,0,0,0,0,1,1,1,0,0,1,0,
	| 0,0,1,0,0,1,1,0,0,0,0,0,0,0,0,
	| 0,0,0,0,0,0,0,0,0,0,0,0,1,0,0,
	| 1,0,1,0,0,2,0,1,0,0,0,0,0,0,1,
	| 0,0,0,0,0,1,0,0,0,0,0,0,0,0,0,
	| 0,0,0,0,0,1,2,0,0,0,1,2,0,0,0,
	| 0,1,0,1,0,0,0,0,1,0,0,0,0,0,0,
	| 0,1,2,0,0,0,0,0,0,0,0,1,0,0,0,
	| 0,0,0,0,0,2,1,0,0,0,1,1,0,1,0,
	| 0,0,2,1,0,0,1,0,1,0,0,0,0,0,0,
	| 0,0,1,0,1,1,0,0,0,0,0,1,0,0,0,
	| 0,1,1,0,0,0,0,0,0,2,0,2,0,0,0,
	| 0,0,1,0,1,1,0,0,0,0,0,1,0,0,0,
	| 0,0,1,0,0,1,1,1,1,0,0,1,0,0,0,
	| 0,0,0,0,0,0,1,0,0,0,0,2,0,1,0,
	| 0,0,0,0,1,0,1,0,0,0,0,0,0,0,0,
	| 0,0,0,0,0,0,0,0,0,0,0,0,0,1,0,
	| 0,0,2,0,0,1,0,0,0,0,0,0,0,0,0,
	| 0,0,0,1,0,0,0,1,1,0,0,1,0,0,0,
	| 0,0,2,0,0,1,0,0,2,0,0,1,0,0,0,
	| 0,0,0,1,0,0,0,1,0,0,0,0,0,0,0,
	| 0,0,1,0,0,1,0,0,0,0,0,0,0,1,0,
	| 0,1,1,0,1,0,0,0,0,0,0,1,0,0,0,
	| 0,0,2,0,0,1,1,0,0,0,0,1,0,0,0,
	| 0,0,1,0,0,0,0,0,0,1,0,1,0,0,0,
	| 0,0,1,1,0,0,0,0,0,0,0,0,0,1,0,
	| 0,0,0,0,0,0,1,0,1,0,0,0,0,0,0,
	| 1,0,0,0,0,0,1,0,1,0,0,0,0,0,0,
	| 0,0,0,0,0,0,0,1,0,0,0,0,0,1,0,
	| 0,0,0,0,0,0,0,1,1,0,0,1,1,0,0,
	| 0,0,0,1,0,0,0,0,2,0,0,1,0,1,0,
	| 0,0,0,0,0,0,0,0,1,0,0,0,0,0,0,
	| 0,0,3,0,0,0,0,0,0,0,0,0,0,0,0,
	| 0,0,1,0,0,1,1,0,0,0,0,1,0,0,0,
	| 0,0,1,0,1,1,0,0,0,1,0,1,0,0,0,
	| 0,0,2,0,0,1,1,0,0,0,0,0,0,0,0,
	| 0,0,0,0,0,0,0,1,1,0,0,1,0,0,0,
	| 0,0,0,0,0,0,0,0,0,0,0,0,0,1,0,
	| 0,0,1,0,0,0,0,0,0,2,0,1,0,1,0,
	| 0,0,0,0,1,1,0,1,0,0,0,1,1,1,0,
	| 0,0,0,1,0,0,0,0,0,0,0,0,0,0,0,
	| 0,0,1,0,0,2,0,0,0,1,1,0,0,0,0,
	| 0,0,0,0,1,0,0,1,0,1,0,2,0,1,0,
	| 0,0,2,0,0,1,1,1,0,0,0,1,0,0,0,
	| 0,0,1,1,0,0,0,0,0,0,0,1,0,0,0,
	| 0,0,1,0,0,1,0,0,0,0,0,0,0,0,0,
	| 0,0,1,0,0,1,0,0,0,0,0,1,0,0,0,
	| 0,0,2,0,0,0,0,0,0,0,0,0,0,0,0,
	| 0,0,1,0,0,0,1,0,0,0,0,0,1,0,0,
	| 0,0,0,0,0,0,1,0,0,0,0,0,0,0,0,
	| 0,1,1,1,0,0,0,0,1,0,0,0,1,0,0,
	| 0,0,0,0,1,2,1,0,2,0,0,0,0,0,0,
	| 0,0,0,0,0,0,0,0,1,1,0,0,0,1,0,
	| 0,0,0,0,0,1,0,0,1,0,0,2,0,0,0,
	| 0,1,0,0,0,1,0,0,0,0,1,1,0,0,0,
	| 1,0,0,0,0,0,1,0,0,0,0,0,0,0,0,
	| 0,0,0,0,0,0,0,0,0,0,0,1,0,0,0,
	| 0,0,0,0,0,0,0,1,2,1,0,2,0,0,0,
	| 0,0,0,0,0,0,0,0,0,0,0,0,0,0,0, |];

% SumOfsreq = 326;

nResources = 19;
mastery = [| false,false,false,false,false,false,true,true,true,false,false,false,false,false,false,
	| false,false,false,false,false,false,false,false,true,false,false,false,false,false,false,
	| false,true,true,false,false,false,false,false,false,true,true,true,true,true,true,
	| false,false,false,false,false,false,false,false,false,true,true,true,true,true,true,
	| false,false,false,false,false,false,false,false,false,false,false,true,false,false,false,
	| true,true,true,false,true,true,false,false,false,false,false,false,false,false,false,
	| false,false,true,false,false,false,false,false,false,false,false,false,false,false,false,
	| false,false,false,false,false,false,false,false,false,false,false,true,false,false,false,
	| false,false,false,false,false,false,false,false,false,true,true,true,false,true,true,
	| false,false,false,true,true,true,false,false,false,false,false,false,false,false,false,
	| false,false,false,false,true,true,false,false,false,false,false,true,false,true,true,
	| false,false,true,false,false,false,false,false,false,false,false,false,false,false,false,
	| false,false,false,false,false,true,false,false,false,false,false,false,false,false,false,
	| false,false,false,true,true,true,false,false,false,false,false,false,false,false,true,
	| false,false,false,false,false,false,true,true,true,false,false,false,false,false,false,
	| false,false,false,false,false,false,true,true,true,true,true,true,false,false,false,
	| false,true,true,false,false,false,false,false,false,false,false,false,false,false,false,
	| false,false,false,false,false,false,true,true,true,false,false,false,true,true,true,
	| false,false,false,false,false,false,false,false,false,false,true,true,false,false,false, |];

nPrecs = 138;
pred = [1,1,1,2,2,2,3,3,3,4,4,4,5,5,5,6,6,7,7,7,8,8,9,9,9,10,10,11,11,12,13,13,13,14,15,15,16,17,17,17,18,19,19,19,20,20,20,21,22,22,23,24,24,25,25,25,26,26,26,27,28,29,30,30,31,31,32,33,33,34,35,36,36,37,38,39,39,40,41,41,42,42,43,44,44,45,46,47,48,49,49,49,50,51,51,52,53,54,55,56,57,58,59,60,61,62,62,62,63,64,64,65,66,67,68,69,70,71,72,73,74,75,76,77,78,79,80,81,82,83,84,85,86,87,88,89,90,91];
succ = [2,3,4,10,5,13,42,68,20,14,23,40,11,6,7,81,75,9,15,8,50,82,18,12,36,19,16,27,51,26,17,35,21,35,28,30,37,59,22,24,26,91,62,39,34,45,58,26,38,55,86,25,29,49,57,55,33,44,31,79,73,32,86,56,84,60,66,41,88,73,56,43,46,66,71,47,80,65,53,48,75,76,45,67,52,74,50,56,63,60,61,54,66,52,55,75,78,82,61,69,68,83,64,72,77,83,86,64,65,89,76,80,70,70,71,71,89,87,88,90,85,80,81,78,87,91,87,82,84,85,85,90,90,89,91,92,92,92];

nUnrels = 3175;
unpred = [2,2,2,2,2,2,2,2,2,3,3,3,3,3,3,3,3,3,3,3,3,3,3,3,3,3,3,3,3,3,3,3,3,3,3,3,3,3,3,3,3,3,3,3,3,3,3,3,3,3,3,3,3,3,3,3,3,3,3,3,3,3,3,3,3,3,3,3,3,3,3,3,3,3,3,3,3,4,4,4,4,4,4,4,4,4,4,4,4,4,4,4,4,4,4,4,4,4,4,4,4,4,4,4,4,4,4,4,4,4,4,4,4,4,4,4,4,4,4,4,4,4,4,4,4,4,4,4,4,4,4,4,4,4,4,4,4,4,4,4,4,4,4,4,4,4,4,4,4,4,4,5,5,5,5,5,5,5,5,5,5,5,5,5,5,5,5,5,5,5,5,5,5,5,5,5,5,5,5,5,5,5,5,6,6,6,6,6,6,6,6,6,6,6,6,6,6,6,6,6,6,6,6,6,6,6,6,6,6,6,6,6,6,6,6,6,6,6,6,6,6,6,6,6,6,6,6,6,6,6,6,6,6,6,6,6,6,6,6,6,6,6,6,6,6,6,6,6,6,6,6,6,6,6,6,6,6,6,6,7,7,7,7,7,7,7,7,7,7,7,7,7,7,7,7,7,7,7,7,7,7,7,7,7,7,7,7,7,7,7,7,7,7,7,7,7,7,7,7,8,8,8,8,8,8,8,8,8,8,8,8,8,8,8,8,8,8,8,8,8,8,8,8,8,8,8,8,8,8,8,8,8,8,8,8,8,8,8,8,8,8,8,8,8,8,8,8,8,8,8,8,8,8,8,8,8,8,8,8,8,8,8,8,8,8,8,8,8,8,8,8,8,8,8,9,9,9,9,9,9,9,9,9,9,9,9,9,9,9,9,9,9,9,9,9,9,9,9,9,9,9,9,9,9,9,9,9,9,9,9,9,9,9,9,9,9,9,9,9,9,9,9,9,10,10,10,10,10,10,10,10,10,10,10,10,10,10,10,10,10,10,10,10,10,10,10,10,10,10,10,10,10,10,10,10,10,10,10,10,10,10,10,10,10,10,10,10,10,10,10,10,10,10,10,10,10,10,10,10,10,11,11,11,11,11,11,11,11,11,11,11,11,11,11,11,11,11,11,11,11,11,11,11,11,11,11,11,11,11,11,11,11,11,11,11,11,11,11,11,11,11,11,11,11,11,11,11,11,11,11,11,11,11,11,11,11,11,11,11,11,11,11,11,11,11,11,11,12,12,12,12,12,12,12,12,12,12,12,12,12,12,12,12,12,12,12,12,12,12,12,12,12,12,12,12,12,12,12,12,12,12,12,12,12,12,12,12,12,12,12,12,12,12,12,12,12,12,12,12,12,12,12,13,13,13,13,13,13,13,13,13,13,13,13,13,13,13,13,13,13,13,13,13,13,13,13,13,13,13,13,13,14,14,14,14,14,14,14,14,14,14,14,14,14,14,14,14,14,14,14,14,14,14,14,14,14,14,14,14,14,14,14,14,14,14,14,14,14,14,14,14,14,14,14,14,14,14,14,14,14,14,14,14,14,14,14,14,14,14,14,14,14,14,14,14,14,14,14,14,14,14,14,15,15,15,15,15,15,15,15,15,15,15,15,15,15,15,15,15,15,15,15,15,15,15,15,15,15,15,15,15,15,15,15,15,15,15,15,15,15,15,15,15,15,15,15,15,15,15,15,15,15,15,15,15,15,15,15,15,15,15,15,15,15,15,15,15,15,16,16,16,16,16,16,16,16,16,16,16,16,16,16,16,16,16,16,16,16,16,16,16,16,16,16,16,16,16,16,16,16,16,16,16,16,16,16,16,16,16,16,16,16,16,16,16,16,16,16,16,16,16,16,16,16,16,16,16,16,16,16,16,16,16,16,16,16,16,16,16,17,17,17,17,17,17,17,17,17,17,17,17,17,17,17,17,17,17,17,17,17,17,17,17,17,17,17,17,17,17,17,17,17,17,17,17,17,17,17,17,17,17,17,18,18,18,18,18,18,18,18,18,18,18,18,18,18,18,18,18,18,18,18,18,18,18,18,18,18,18,18,18,18,18,18,18,18,18,18,18,18,18,18,18,18,18,18,18,18,18,18,18,19,19,19,19,19,19,19,19,19,19,19,19,19,19,19,19,19,19,19,19,19,19,19,19,19,19,19,19,19,19,19,19,19,19,19,19,19,19,19,19,19,19,19,19,19,19,19,19,19,19,19,19,19,20,20,20,20,20,20,20,20,20,20,20,20,20,20,20,20,20,20,20,20,20,20,20,20,20,20,20,20,20,20,20,20,20,20,20,20,20,20,20,20,20,20,20,20,20,20,20,20,20,20,20,20,20,20,20,20,20,20,20,20,20,20,20,21,21,21,21,21,21,21,21,21,21,21,21,21,21,21,21,21,21,21,21,21,21,21,21,21,21,21,21,21,21,21,21,21,21,21,21,21,21,21,21,21,21,21,21,21,21,22,22,22,22,22,22,22,22,22,22,22,22,22,22,22,22,22,22,22,22,22,22,22,22,22,22,22,22,22,22,22,22,22,22,22,22,22,22,22,22,22,22,22,22,22,22,22,22,22,22,22,22,22,22,22,22,22,22,22,22,22,23,23,23,23,23,23,23,23,23,23,23,23,23,23,23,23,23,23,23,23,23,23,23,23,23,23,23,23,23,23,23,23,23,23,23,23,23,23,23,23,23,23,23,23,23,23,23,23,23,23,23,23,23,23,23,23,23,23,23,23,23,23,23,23,23,23,24,24,24,24,24,24,24,24,24,24,24,24,24,24,24,24,24,24,24,24,24,24,24,24,24,24,24,24,24,24,24,24,24,24,24,24,24,24,24,24,24,24,24,25,25,25,25,25,25,25,25,25,25,25,25,25,25,25,25,25,25,25,25,25,25,25,25,25,25,25,25,25,25,25,25,25,25,25,25,25,25,25,25,25,25,25,25,25,25,25,26,26,26,26,26,26,26,26,26,26,26,26,26,26,26,26,26,26,26,26,26,26,26,26,26,26,26,26,26,26,26,26,26,26,26,26,26,26,26,26,26,26,27,27,27,27,27,27,27,27,27,27,27,27,27,27,27,27,27,27,27,27,27,27,27,27,27,27,27,27,27,27,27,27,27,27,27,27,27,27,27,27,27,27,27,27,27,27,27,27,27,27,27,27,27,27,27,27,27,27,27,27,27,27,28,28,28,28,28,28,28,28,28,28,28,28,28,28,28,28,28,28,28,28,28,28,28,28,28,28,28,28,28,28,28,28,28,28,28,28,28,28,28,28,28,28,28,28,28,28,28,28,28,28,28,28,28,28,28,28,28,28,28,28,28,29,29,29,29,29,29,29,29,29,29,29,29,29,29,29,29,29,29,29,29,29,29,29,29,29,29,29,29,29,29,29,29,29,29,29,29,29,29,29,29,29,29,29,29,29,29,29,29,29,29,29,29,29,29,29,29,29,29,30,30,30,30,30,30,30,30,30,30,30,30,30,30,30,30,30,30,30,30,30,30,30,30,30,30,30,30,30,30,30,30,30,30,30,30,30,30,30,30,30,30,30,30,30,30,30,30,30,30,30,30,30,30,31,31,31,31,31,31,31,31,31,31,31,31,31,31,31,31,31,31,31,31,31,31,31,31,31,31,31,31,31,31,31,31,31,31,31,31,31,31,31,31,31,31,31,31,31,31,31,31,31,31,31,31,31,32,32,32,32,32,32,32,32,32,32,32,32,32,32,32,32,32,32,32,32,32,32,32,32,32,32,32,32,32,32,32,32,32,32,32,32,32,32,32,32,32,32,32,32,32,32,32,32,32,32,32,32,32,32,32,32,33,33,33,33,33,33,33,33,33,33,33,33,33,33,33,33,33,33,33,33,33,33,33,33,33,33,33,33,33,33,33,33,33,33,33,33,33,33,33,33,33,33,33,33,33,33,33,34,34,34,34,34,34,34,34,34,34,34,34,34,34,34,34,34,34,34,34,34,34,34,34,34,34,34,34,34,34,34,34,34,34,34,34,34,34,34,34,34,34,34,34,34,34,34,34,34,34,34,34,34,34,34,35,35,35,35,35,35,35,35,35,35,35,35,35,35,35,35,35,35,35,35,35,35,35,35,35,35,35,35,35,35,35,35,35,35,35,35,35,35,35,35,35,35,35,35,35,35,35,35,35,35,35,36,36,36,36,36,36,36,36,36,36,36,36,36,36,36,36,36,36,36,36,36,36,36,36,36,36,36,36,36,36,36,36,36,36,36,36,36,36,36,36,36,36,36,36,36,37,37,37,37,37,37,37,37,37,37,37,37,37,37,37,37,37,37,37,37,37,37,37,37,37,37,37,37,37,37,37,37,37,37,37,37,37,37,37,37,37,37,37,37,37,37,37,37,37,37,37,38,38,38,38,38,38,38,38,38,38,38,38,38,38,38,38,38,38,38,38,38,38,38,38,38,38,38,38,38,38,38,38,38,38,38,38,38,38,38,38,38,38,38,38,38,38,38,38,38,38,39,39,39,39,39,39,39,39,39,39,39,39,39,39,39,39,39,39,39,39,39,39,39,39,39,39,39,39,39,39,39,39,39,39,39,39,39,39,39,39,39,39,39,39,39,40,40,40,40,40,40,40,40,40,40,40,40,40,40,40,40,40,40,40,40,40,40,40,40,40,40,40,40,40,40,40,40,40,40,40,40,40,40,40,40,40,40,40,40,40,40,40,41,41,41,41,41,41,41,41,41,41,41,41,41,41,41,41,41,41,41,41,41,41,41,41,41,41,41,41,41,41,41,41,41,41,41,41,41,41,41,41,41,41,42,42,42,42,42,42,42,42,42,42,42,42,42,42,42,42,42,42,42,42,42,42,42,42,42,42,42,42,42,42,42,42,42,42,42,42,42,42,42,43,43,43,43,43,43,43,43,43,43,43,43,43,43,43,43,43,43,43,43,43,43,43,43,43,43,43,43,43,43,43,43,43,43,43,43,43,43,43,43,43,43,43,43,44,44,44,44,44,44,44,44,44,44,44,44,44,44,44,44,44,44,44,44,44,44,44,44,44,44,44,44,44,44,44,44,44,44,44,44,44,44,44,44,45,45,45,45,45,45,45,45,45,45,45,45,45,45,45,45,45,45,45,45,45,45,45,45,45,45,45,45,45,45,45,45,45,45,45,45,45,45,45,45,45,45,45,46,46,46,46,46,46,46,46,46,46,46,46,46,46,46,46,46,46,46,46,46,46,46,46,46,46,46,46,46,46,46,46,46,46,46,46,46,46,46,46,46,47,47,47,47,47,47,47,47,47,47,47,47,47,47,47,47,47,47,47,47,47,47,47,47,47,47,47,47,47,47,47,47,47,47,47,47,47,47,47,48,48,48,48,48,48,48,48,48,48,48,48,48,48,48,48,48,48,48,48,48,48,48,48,48,48,48,48,48,48,48,48,48,48,48,48,48,48,49,49,49,49,49,49,49,49,49,49,49,49,49,49,49,49,49,49,49,49,49,49,49,49,49,49,49,49,50,50,50,50,50,50,50,50,50,50,50,50,50,50,50,50,50,50,50,50,50,50,50,50,50,50,50,50,50,50,50,50,50,50,50,50,50,50,51,51,51,51,51,51,51,51,51,51,51,51,51,51,51,51,51,51,51,51,51,51,51,51,51,51,51,51,51,51,51,52,52,52,52,52,52,52,52,52,52,52,52,52,52,52,52,52,52,52,52,52,52,52,52,52,52,52,52,52,52,52,52,52,52,52,53,53,53,53,53,53,53,53,53,53,53,53,53,53,53,53,53,53,53,53,53,53,53,53,53,53,53,53,53,53,53,53,53,53,53,54,54,54,54,54,54,54,54,54,54,54,54,54,54,54,54,54,54,54,54,54,54,54,54,54,54,54,54,54,54,54,54,54,55,55,55,55,55,55,55,55,55,55,55,55,55,55,55,55,55,55,55,55,55,55,55,55,55,55,55,55,55,55,55,56,56,56,56,56,56,56,56,56,56,56,56,56,56,56,56,56,56,56,56,56,56,56,56,56,56,56,56,56,56,56,57,57,57,57,57,57,57,57,57,57,57,57,57,57,57,57,57,57,57,57,57,57,57,57,57,57,57,57,57,57,58,58,58,58,58,58,58,58,58,58,58,58,58,58,58,58,58,58,58,58,58,58,58,58,58,58,58,58,58,58,59,59,59,59,59,59,59,59,59,59,59,59,59,59,59,59,59,59,59,59,59,59,59,59,60,60,60,60,60,60,60,60,60,60,60,60,60,60,60,60,60,60,60,60,60,60,60,60,60,60,60,60,61,61,61,61,61,61,61,61,61,61,61,61,61,61,61,61,61,61,61,61,61,61,61,61,61,61,62,62,62,62,62,62,62,62,62,62,62,62,62,62,62,62,62,62,62,63,63,63,63,63,63,63,63,63,63,63,63,63,63,63,63,63,63,63,63,63,63,63,63,64,64,64,64,64,64,64,64,64,64,64,64,64,64,64,64,64,64,64,64,65,65,65,65,65,65,65,65,65,65,65,65,65,65,65,65,65,65,65,65,65,65,65,66,66,66,66,66,66,66,66,66,66,66,66,66,66,66,66,66,66,66,66,66,66,66,67,67,67,67,67,67,67,67,67,67,67,67,67,67,67,67,67,67,67,67,67,67,68,68,68,68,68,68,68,68,68,68,68,68,68,68,68,68,68,68,68,68,69,69,69,69,69,69,69,69,69,69,69,69,69,69,69,69,69,69,69,70,70,70,70,70,70,70,70,70,70,70,70,70,70,70,70,70,70,70,70,71,71,71,71,71,71,71,71,71,71,71,71,71,71,71,71,71,71,72,72,72,72,72,72,72,72,72,72,72,72,72,72,72,72,72,73,73,73,73,73,73,73,73,73,73,73,73,73,73,73,73,73,74,74,74,74,74,74,74,74,74,74,74,74,74,74,74,75,75,75,75,75,75,75,75,75,75,75,75,75,76,76,76,76,76,76,76,76,76,76,77,77,77,77,77,77,77,77,77,77,77,78,78,78,78,78,78,78,78,78,78,78,79,79,79,79,79,79,79,79,79,79,79,80,80,80,80,80,80,80,80,80,81,81,81,81,81,81,82,82,82,82,82,82,83,83,83,83,83,83,84,84,84,84,84,85,85,85,85,85,86,86,86,86,87,87,87,88,88,89,89,90];
unsucc = [3,4,14,20,23,34,40,42,58,4,5,6,7,8,9,10,11,12,13,14,15,16,17,18,19,21,22,23,24,25,26,27,28,29,30,31,32,33,35,36,37,38,39,40,41,43,44,46,47,48,49,50,51,52,53,54,55,56,57,59,60,61,62,63,64,65,66,67,69,70,72,77,78,79,86,88,91,5,6,7,8,9,10,11,12,13,15,16,17,18,19,20,21,22,24,25,26,27,28,29,30,31,32,33,34,36,37,38,39,41,42,43,44,45,46,47,48,49,50,51,52,53,54,55,57,58,59,60,61,62,63,64,66,67,68,70,72,73,74,75,76,77,78,79,81,82,83,84,85,88,91,10,13,14,16,17,19,20,21,22,23,24,25,29,32,34,35,37,38,39,40,42,47,49,54,57,58,59,62,64,68,76,83,7,8,9,10,11,12,13,14,15,16,17,18,19,20,21,22,23,24,25,26,27,28,29,30,31,32,33,34,35,36,37,38,39,40,41,42,43,44,45,46,47,48,49,50,51,52,53,54,55,56,57,58,59,60,61,62,63,64,65,66,67,68,69,70,71,72,73,74,76,77,78,79,83,86,88,91,10,11,13,14,16,17,19,20,21,22,23,24,25,27,29,32,34,35,37,38,39,40,42,47,49,51,54,55,57,58,59,61,62,64,68,76,77,79,81,83,9,10,11,12,13,14,15,16,17,18,19,20,21,22,23,24,25,26,27,28,29,30,31,32,33,34,35,36,37,38,39,40,41,42,43,44,45,46,47,48,49,51,52,53,54,55,56,57,58,59,60,61,62,63,64,65,67,68,69,71,72,73,74,75,76,77,78,79,80,81,83,86,87,88,91,10,11,13,14,15,16,17,19,20,21,22,23,24,25,27,28,29,30,32,34,35,37,38,39,40,42,47,49,51,54,55,56,57,58,59,61,62,64,68,69,71,73,76,77,79,81,82,83,86,11,12,13,14,15,17,18,20,21,22,23,24,25,26,27,28,29,30,31,32,33,34,35,36,38,40,41,42,43,44,45,46,48,49,50,51,52,53,54,55,57,58,59,60,61,63,65,67,68,72,73,74,75,77,78,79,88,12,13,14,15,16,17,18,19,20,21,22,23,24,25,26,28,29,30,31,32,33,34,35,36,37,38,39,40,41,42,43,44,45,46,47,48,49,50,53,54,56,57,58,59,60,62,63,64,65,66,67,68,69,70,71,72,73,74,76,81,82,83,84,85,86,88,90,13,14,15,16,17,18,19,20,21,22,23,24,25,27,28,29,30,32,34,35,36,37,38,39,40,42,43,45,46,47,49,50,51,54,55,56,57,58,59,61,62,64,66,68,69,71,73,74,76,77,79,81,82,83,86,14,15,16,18,19,20,23,27,28,30,34,36,37,39,40,42,43,45,46,47,50,51,58,62,73,74,79,83,86,15,16,17,18,19,20,21,22,23,24,25,26,27,28,29,30,31,32,33,34,36,37,38,39,40,41,42,43,44,45,46,47,48,49,50,51,52,53,54,55,57,58,59,60,61,62,63,64,65,66,67,68,70,72,73,74,75,76,77,78,79,80,81,82,83,84,85,86,88,90,91,16,17,18,19,20,21,22,23,24,25,26,27,29,31,32,33,34,35,36,37,38,39,40,41,42,43,44,45,46,47,48,49,50,51,52,53,54,55,57,58,59,60,61,62,63,64,65,66,67,68,70,72,74,75,76,77,78,79,80,81,82,83,84,85,88,91,17,18,19,20,21,22,23,24,25,26,27,28,29,30,31,32,33,34,35,36,38,39,40,41,42,43,44,45,46,47,48,49,50,51,52,53,54,55,56,57,58,59,60,61,62,63,64,65,67,68,69,71,72,73,74,75,76,77,78,79,80,81,82,83,84,85,86,87,88,90,91,18,19,20,21,23,26,27,28,30,31,33,34,35,36,37,39,40,41,42,43,44,45,46,47,48,50,51,52,53,56,58,62,63,65,67,69,73,74,75,79,80,83,86,19,20,21,22,23,24,25,27,28,29,30,32,34,35,36,37,38,39,40,42,43,45,46,47,49,50,51,54,55,56,57,58,59,61,62,64,66,68,69,71,73,74,76,77,79,81,82,83,86,20,21,22,23,24,25,26,27,28,29,30,31,32,33,34,35,36,37,38,40,41,42,43,44,45,46,48,49,50,51,52,53,54,55,57,58,59,60,61,63,65,66,67,68,70,72,73,74,75,77,78,79,88,21,22,23,24,25,26,27,28,29,30,31,32,33,35,36,37,38,39,40,41,42,43,44,46,47,48,49,50,51,52,53,54,55,56,57,59,60,61,62,63,64,65,66,67,68,69,70,71,72,75,76,77,78,79,80,81,82,84,86,87,88,89,91,22,23,24,25,27,28,29,30,32,34,35,36,37,38,39,40,42,43,45,46,47,49,50,51,54,55,56,57,58,59,61,62,64,66,68,69,71,73,74,76,77,79,81,82,83,86,23,24,25,26,27,28,29,30,31,32,33,34,35,36,37,39,40,41,42,43,44,45,46,47,48,49,50,51,52,53,54,56,57,58,59,60,62,63,64,65,66,67,68,69,70,72,73,74,75,76,79,80,81,82,83,84,85,86,88,90,91,24,25,26,27,28,29,30,31,32,33,34,35,36,37,38,39,40,41,42,43,44,45,46,47,48,49,50,51,52,53,54,55,56,57,58,59,60,61,62,63,64,65,66,67,68,69,70,71,72,73,74,75,76,77,78,79,80,81,82,83,84,85,87,88,89,91,26,27,28,30,31,33,34,35,36,37,38,39,40,41,42,43,44,45,46,47,48,50,51,52,53,56,58,59,62,63,64,65,67,69,73,74,75,76,79,80,81,83,86,26,27,28,29,30,31,32,33,34,35,36,37,38,39,40,41,42,43,44,45,46,47,48,50,51,52,53,56,58,59,62,63,64,65,66,67,69,70,73,74,75,76,79,80,81,83,86,27,28,29,30,32,34,35,36,37,38,39,40,42,43,45,46,47,49,50,51,54,55,56,57,58,59,61,62,64,66,68,69,71,73,74,76,77,79,81,82,83,86,28,29,30,31,32,33,34,35,36,37,38,39,40,41,42,43,44,45,46,47,48,49,50,51,52,53,54,55,56,57,58,59,60,61,62,63,64,65,66,67,68,69,70,71,72,73,74,75,76,77,78,80,81,82,83,84,85,86,87,88,89,90,29,30,31,32,33,34,35,36,37,38,39,40,41,42,43,44,45,46,47,48,49,50,51,52,53,54,55,56,57,58,59,60,61,62,63,64,65,66,67,68,69,70,71,72,74,75,76,77,78,79,80,81,82,83,84,85,86,87,88,89,91,30,31,33,34,35,36,37,38,39,40,41,42,43,44,45,46,47,48,49,50,51,52,53,54,55,56,57,58,59,60,61,62,63,64,65,67,68,69,71,72,73,74,75,76,77,78,79,80,81,82,83,84,85,86,87,88,90,91,31,32,33,34,35,36,37,38,39,40,41,42,43,44,45,46,47,48,49,50,51,52,53,54,55,57,58,59,60,61,62,63,64,65,66,67,68,70,72,73,74,75,76,77,78,79,80,81,82,83,84,85,88,91,32,33,34,35,36,37,38,39,40,41,42,43,44,45,46,47,48,49,50,51,52,53,54,55,56,57,58,59,61,62,63,64,65,66,67,68,69,70,71,73,74,75,76,77,78,79,80,81,82,83,86,87,89,33,34,35,36,37,38,39,40,41,42,43,44,45,46,47,48,49,50,51,52,53,54,55,56,57,58,59,60,61,62,63,64,65,67,68,69,71,72,73,74,75,76,77,78,79,80,81,82,83,84,85,86,87,88,90,91,34,35,36,37,38,39,40,42,43,44,45,46,47,49,50,51,52,54,55,56,57,58,59,60,61,62,64,66,67,68,69,70,71,72,73,74,75,76,77,79,81,82,83,84,85,86,90,35,36,37,38,39,40,41,42,43,44,45,46,47,48,49,50,51,52,53,54,55,56,57,58,59,60,61,62,63,64,65,66,67,68,69,70,71,72,74,75,76,77,78,79,80,81,82,83,84,85,86,87,88,89,91,36,37,38,39,40,41,42,43,44,45,46,47,48,49,50,51,52,53,54,55,57,58,59,60,61,62,63,64,65,66,67,68,70,72,73,74,75,76,77,78,79,80,81,82,83,84,85,86,88,90,91,37,38,39,40,41,42,44,47,48,49,51,52,53,54,55,56,57,58,59,60,61,62,63,64,65,67,68,69,71,72,73,75,76,77,78,79,80,81,82,83,84,86,87,88,91,38,39,40,41,42,43,44,45,46,47,48,49,50,51,52,53,54,55,56,57,58,59,60,61,62,63,64,65,67,68,69,71,72,73,74,75,76,77,78,79,80,81,82,83,84,85,86,87,88,90,91,39,40,41,42,43,44,45,46,47,48,49,50,51,52,53,54,55,56,57,58,59,60,61,62,63,64,65,66,67,68,69,70,72,73,74,75,76,77,78,79,80,81,82,83,84,85,86,88,90,91,40,41,42,43,44,45,46,48,49,50,51,52,53,54,55,57,58,59,60,61,62,63,64,65,66,67,68,70,72,73,74,75,76,77,78,79,81,82,83,84,85,86,88,90,91,41,42,43,44,45,46,47,48,49,50,51,52,53,54,55,56,57,58,59,60,61,62,63,64,66,67,68,69,70,71,72,73,74,75,76,77,78,79,81,82,83,84,85,86,88,90,91,42,43,44,45,46,47,49,50,51,52,54,55,56,57,58,59,60,61,62,64,66,67,68,69,70,71,72,73,74,75,76,77,79,81,82,83,84,85,86,88,90,91,43,44,45,46,47,48,49,50,51,52,53,54,55,56,57,58,59,60,61,62,63,64,65,66,67,68,69,70,71,72,73,74,77,78,79,83,86,88,91,44,46,47,48,49,50,51,52,53,54,55,56,57,58,59,60,61,62,63,64,65,66,67,68,69,70,71,72,73,75,76,77,78,79,80,81,82,83,84,86,87,88,89,91,45,46,47,48,49,50,51,53,54,55,56,57,58,59,60,61,62,63,64,65,66,68,69,71,72,73,74,76,77,78,79,81,82,83,84,85,86,88,90,91,46,47,48,49,50,51,52,53,54,55,56,57,58,59,60,61,62,63,64,65,66,67,68,69,70,71,72,73,75,76,77,78,79,80,81,82,83,84,86,87,88,89,91,47,48,49,51,52,53,54,55,56,57,58,59,60,61,62,63,64,65,67,68,69,71,72,73,74,75,76,77,78,79,80,81,82,83,84,85,86,87,88,90,91,48,49,50,51,52,53,54,55,57,58,59,60,61,62,63,64,65,66,67,68,70,72,73,74,75,76,77,78,79,80,81,82,83,84,85,86,88,90,91,49,50,51,52,53,54,55,56,57,58,59,60,61,62,64,66,67,68,69,70,71,72,73,74,75,76,77,78,79,81,82,83,84,85,86,88,90,91,50,51,52,53,55,56,57,58,59,62,63,64,65,66,67,68,69,70,71,73,74,75,76,79,80,81,83,86,51,52,53,54,55,56,57,58,59,60,61,62,63,64,65,67,68,69,71,72,73,74,75,76,77,78,79,80,81,82,83,84,85,86,87,88,90,91,53,54,56,57,58,59,60,62,63,64,65,66,67,68,69,70,71,72,73,74,76,79,81,82,83,84,85,86,88,90,91,53,54,55,56,57,58,59,60,61,62,63,64,65,66,67,68,69,70,71,72,73,74,76,77,78,79,81,82,83,84,85,86,88,90,91,54,55,56,57,58,59,60,61,62,63,64,65,66,67,68,69,70,71,72,73,74,75,76,77,79,80,81,82,83,84,85,86,88,90,91,55,56,57,58,59,60,61,62,63,64,65,66,67,68,69,70,71,72,73,74,75,76,77,78,79,80,81,83,86,87,88,89,91,56,57,58,59,60,62,63,64,65,66,67,68,69,70,71,72,73,74,75,76,79,80,81,82,83,84,85,86,88,90,91,57,58,59,60,61,62,63,64,65,66,67,68,70,72,73,74,75,76,77,78,79,80,81,82,83,84,85,86,88,90,91,58,59,60,61,62,63,64,65,66,67,69,70,72,73,74,75,76,77,78,79,80,81,82,83,84,85,86,88,90,91,59,60,61,62,63,64,65,66,67,68,69,70,71,72,73,74,75,76,77,78,79,80,81,82,84,86,87,88,89,91,60,61,62,63,65,66,67,68,69,70,71,72,73,74,75,77,78,79,80,83,86,87,88,91,61,62,63,64,65,66,67,68,69,70,71,73,74,75,76,77,78,79,80,81,82,83,84,85,86,87,89,90,62,63,64,65,66,67,68,69,70,71,72,73,74,75,76,79,80,81,82,83,84,85,86,88,90,91,63,65,66,67,68,69,70,71,72,73,74,75,77,78,79,80,87,88,91,64,66,67,68,69,70,71,72,73,74,75,76,77,78,79,81,82,83,84,85,86,88,90,91,65,66,67,68,69,70,71,72,73,74,75,77,78,79,80,83,86,87,88,91,66,67,68,69,70,71,72,73,74,75,76,77,78,79,81,82,83,84,85,86,88,90,91,67,68,69,71,72,73,74,75,76,77,78,79,80,81,82,83,84,85,86,87,88,90,91,68,69,71,72,73,74,75,76,77,78,79,80,81,82,83,84,85,86,87,88,90,91,69,70,72,73,74,75,76,77,78,79,80,81,82,83,84,85,86,88,90,91,70,72,73,74,75,76,77,78,79,80,81,82,83,84,85,86,88,90,91,71,72,73,74,75,76,77,78,79,80,81,82,83,84,85,86,87,88,90,91,72,73,74,75,76,77,78,79,80,81,82,83,84,85,86,88,90,91,73,74,75,76,77,78,79,80,81,82,83,84,85,86,87,89,90,74,75,76,77,78,79,80,81,82,83,84,85,86,87,88,89,91,75,76,77,78,79,80,81,82,83,84,86,87,88,89,91,76,77,78,79,81,82,83,84,85,86,88,90,91,77,78,79,80,83,86,87,88,89,91,79,80,81,82,83,84,85,86,88,90,91,79,80,81,82,83,84,85,86,88,90,91,80,81,82,83,84,85,86,87,88,89,90,81,82,83,84,85,86,88,90,91,83,86,87,88,89,91,83,86,87,88,89,91,84,86,87,88,89,91,86,87,88,89,91,86,87,88,89,91,87,88,89,91,88,90,91,89,90,90,91,91];

USEFUL_RES = [{},
	{3,4,6,7,9,12,16,17,19},
	{1,3,6,7,10,11,12,13,14,15,16,17,18},
	{1,3,4,6,7,9,10,11,12,13,14,15,16,17,18},
	{3,4,6,9,10,11,13,14,16,17,19},
	{3,4,5,6,7,8,9,10,11,12,13,14,16,17,19},
	{1,2,15,16,18},
	{3,4,9,16,19},
	{3,4,6,7,9,10,11,12,14,16,17,19},
	{1,2,3,4,5,6,7,8,9,11,12,15,16,17,18,19},
	{1,3,4,6,7,9,10,11,12,13,14,15,16,17,18},
	{6},
	{1,3,4,6,7,9,10,11,12,13,14,15,16,17,18},
	{3,4,5,6,7,8,9,10,11,12,14,16,17,19},
	{1,3,4,5,6,8,9,10,11,14,15,16,17,18,19},
	{3,4,5,6,7,8,9,11,12,16,17,18,19},
	{10,14},
	{1,2,3,4,5,6,7,8,9,10,11,12,14,15,16,17,18,19},
	{3,4,5,6,7,8,9,10,11,12,13,14,16,17,19},
	{1,2,3,4,5,6,7,8,9,10,11,12,13,14,15,16,17,18,19},
	{1,15,16,18},
	{3,6,7,12,17},
	{1,2,3,4,6,9,10,11,13,14,15,16,18},
	{3,4,18},
	{1,3,6,7,10,11,12,13,14,15,16,17,18},
	{1,2,3,4,5,6,7,8,9,11,12,15,16,17,18,19},
	{3,4,5,6,8,9,10,11,14,16,19},
	{3,6,7,12,17},
	{1,2,3,4,5,6,8,9,10,11,13,14,15,16,18,19},
	{3,6,7,12,17},
	{3,4,5,6,7,8,9,11,12,16,17,18,19},
	{3,4,9,16,19},
	{1,2,3,4,6,7,9,10,11,12,14,15,16,17,18},
	{1,2,3,4,6,7,9,11,12,15,16,17,18,19},
	{1,3,6,7,10,11,12,13,14,15,16,17,18},
	{3,4,18},
	{1,3,4,6,7,9,10,11,12,13,14,15,16,17,18},
	{6,10,11,13,14},
	{1,3,4,5,6,8,9,10,11,13,14,15,16,18,19},
	{1,2,3,6,10,14,15,16,17,18},
	{3,4,5,6,7,8,9,11,12,16,17,19},
	{1,3,4,5,6,8,9,10,11,13,14,15,16,18,19},
	{1,2,3,6,7,10,12,14,15,16,17,18},
	{3,4,5,6,7,8,9,10,11,12,13,14,16,17,19},
	{3,4,5,6,7,8,9,11,12,16,17,19},
	{3,4,5,6,7,8,9,10,11,12,13,14,16,17,19},
	{1,2,3,4,5,6,7,8,9,10,11,12,13,14,15,16,17,18,19},
	{1,3,4,5,8,9,11,15,16,18,19},
	{1,6,10,11,14,15,16,18},
	{3,4,9,11,18},
	{3,6,7,10,11,12,13,14,17},
	{1,2,3,4,5,8,9,10,11,14,15,16,18,19},
	{1,2,3,4,5,6,7,8,9,10,11,12,13,14,15,16,17,18,19},
	{1,10,14,15,16,18},
	{3,4,6,7,9,10,11,12,13,14,17,18},
	{3,4,5,6,7,8,9,10,11,12,14,16,17,19},
	{1,3,4,5,6,7,8,9,10,11,12,13,14,15,16,17,18,19},
	{3,4,5,6,7,8,9,11,12,16,17,19},
	{3,4,6,7,9,10,11,12,14,17,18},
	{1,2,15,16,18},
	{1,2,6,15,16,18},
	{1,3,4,9,11,15,16,18},
	{1,2,3,4,5,8,9,11,15,16,18,19},
	{1,2,3,4,5,8,9,10,11,14,15,16,18,19},
	{1,2,15,16,18},
	{3,6,7,12,17},
	{1,3,4,5,6,7,8,9,10,11,12,13,14,15,16,17,18,19},
	{3,4,5,6,7,8,9,10,11,12,13,14,16,17,19},
	{1,3,6,7,10,11,12,13,14,15,16,17,18},
	{1,2,3,4,5,8,9,11,15,16,18,19},
	{3,4,9,11,18},
	{3,4,5,6,7,8,9,11,12,16,17,18,19},
	{1,3,4,5,6,8,9,10,11,13,14,15,16,18,19},
	{10,14},
	{3,4,6,7,9,10,11,12,13,14,16,17,19},
	{1,3,4,5,6,8,9,10,11,14,15,16,18,19},
	{1,3,4,5,6,7,8,9,10,11,12,13,14,15,16,17,18,19},
	{3,4,5,6,7,8,9,10,11,12,14,16,17,19},
	{3,6,7,10,11,12,13,14,17},
	{3,4,5,6,7,8,9,10,11,12,13,14,16,17,19},
	{3,6,7,12,17},
	{1,3,4,6,7,12,15,16,17,18},
	{1,15,16,18},
	{1,2,3,4,6,7,10,12,14,15,16,17,18},
	{1,2,6,10,11,13,14,15,16,18},
	{1,2,3,4,9,11,15,16,18},
	{1,2,3,4,5,6,8,9,10,11,13,14,15,16,18,19},
	{3,4,5,6,8,9,10,11,13,14,16,17,19},
	{1,6,15,16,18},
	{3,4,5,8,9,11,16,19},
	{1,2,3,4,5,8,9,11,15,16,18,19},
	{}];

POTENTIAL_ACT = [{3,4,7,10,11,13,15,18,20,21,23,25,26,29,33,34,35,37,39,40,42,43,47,48,49,52,53,54,57,60,61,62,63,64,65,67,69,70,73,76,77,82,83,84,85,86,87,89,91},
	{7,10,18,20,23,26,29,33,34,40,43,47,52,53,60,61,63,64,65,70,84,85,86,87,91},
	{2,3,4,5,6,8,9,10,11,13,14,15,16,18,19,20,22,23,24,25,26,27,28,29,30,31,32,33,34,35,36,37,39,40,41,42,43,44,45,46,47,48,50,51,52,53,55,56,57,58,59,62,63,64,66,67,68,69,70,71,72,73,75,76,77,78,79,80,81,82,84,86,87,88,90,91},
	{2,4,5,6,8,9,10,11,13,14,15,16,18,19,20,23,24,26,27,29,31,32,33,34,36,37,39,41,42,44,45,46,47,48,50,52,53,55,56,57,58,59,62,63,64,67,68,70,71,72,73,75,76,77,78,80,82,84,86,87,88,90,91},
	{6,10,14,15,16,18,19,20,26,27,29,31,39,41,42,44,45,46,47,48,52,53,56,57,58,63,64,67,68,70,72,73,76,77,78,80,87,88,90,91},
	{2,3,4,5,6,9,10,11,12,13,14,15,16,18,19,20,22,23,25,26,27,28,29,30,31,33,34,35,37,38,39,40,41,42,43,44,45,46,47,49,51,53,55,56,57,58,59,61,66,67,68,69,72,73,75,76,77,78,79,80,81,82,84,85,87,88,89},
	{2,3,4,6,9,10,11,13,14,16,18,19,20,22,25,26,28,30,31,33,34,35,37,41,43,44,45,46,47,51,53,55,56,57,58,59,66,67,68,69,72,75,77,78,79,80,81,82,84},
	{6,10,14,15,16,18,19,20,26,27,29,31,39,41,42,44,45,46,47,48,52,53,56,57,58,63,64,67,68,70,72,73,76,77,78,80,87,88,90,91},
	{2,4,5,6,8,9,10,11,13,14,15,16,18,19,20,23,26,27,29,31,32,33,34,37,39,41,42,44,45,46,47,48,50,52,53,55,56,57,58,59,62,63,64,67,68,70,71,72,73,75,76,77,78,80,86,87,88,90,91},
	{3,4,5,6,9,11,13,14,15,17,18,19,20,23,25,27,29,33,35,37,38,39,40,42,43,44,46,47,49,51,52,53,54,55,56,57,59,64,67,68,69,73,74,75,76,77,78,79,80,84,85,87,88},
	{3,4,5,6,9,10,11,13,14,15,16,18,19,20,23,25,26,27,29,31,33,34,35,37,38,39,41,42,44,45,46,47,48,49,50,51,52,53,55,56,57,58,59,62,63,64,67,68,69,70,71,72,73,75,76,77,78,79,80,85,86,87,88,90,91},
	{2,3,4,6,9,10,11,13,14,16,18,19,20,22,25,26,28,30,31,33,34,35,37,41,43,44,45,46,47,51,53,55,56,57,58,59,66,67,68,69,72,75,77,78,79,80,81,82,84},
	{3,4,5,6,11,13,19,20,23,25,29,35,37,38,39,42,44,46,47,51,53,55,57,67,68,69,73,75,77,79,80,85,87,88},
	{3,4,5,6,9,11,13,14,15,17,18,19,20,23,25,27,29,33,35,37,38,39,40,42,43,44,46,47,49,51,52,53,54,55,56,57,59,64,67,68,69,73,74,75,76,77,78,79,80,84,85,87,88},
	{3,4,7,10,11,13,15,18,20,21,23,25,26,29,33,34,35,37,39,40,42,43,47,48,49,52,53,54,57,60,61,62,63,64,65,67,69,70,73,76,77,82,83,84,85,86,87,89,91},
	{2,3,4,5,6,7,8,9,10,11,13,14,15,16,18,19,20,21,23,25,26,27,29,31,32,33,34,35,37,39,40,41,42,43,44,45,46,47,48,49,52,53,54,56,57,58,60,61,62,63,64,65,67,68,69,70,72,73,75,76,77,78,80,82,83,84,85,86,87,88,89,90,91},
	{2,3,4,5,6,9,10,11,13,14,15,16,18,19,20,22,25,26,28,30,31,33,34,35,37,40,41,43,44,45,46,47,51,53,55,56,57,58,59,66,67,68,69,72,75,77,78,79,80,81,82,84,88},
	{3,4,7,10,11,13,15,16,18,20,21,23,24,25,26,29,31,33,34,35,36,37,39,40,42,43,47,48,49,50,52,53,54,55,57,59,60,61,62,63,64,65,67,69,70,71,72,73,76,77,82,83,84,85,86,87,89,91},
	{2,5,6,8,9,10,14,15,16,18,19,20,26,27,29,31,32,34,39,41,42,44,45,46,47,48,52,53,56,57,58,63,64,67,68,70,72,73,75,76,77,78,80,87,88,90,91}];
